NAME: PointSet_Angle_20_2
TYPE: TSP
COMMENT: Points chosen discrete uniformly at random out of ${0, \ldots, 500}^2$.
DIMENSION: 20
EDGE_WEIGHT_TYPE: EUC_2D
NODE_COORD_SECTION
1 201 96
2 393 175
3 178 110
4 325 19
5 337 217
6 212 374
7 93 397
8 465 364
9 244 159
10 54 184
11 241 96
12 239 395
13 436 189
14 459 338
15 240 343
16 184 187
17 440 323
18 362 364
19 434 433
20 383 270
EOF
